5 5
2 93 1 16 3 91 0 26 4 75
4 47 3 37 2 3 0 26 1 98
3 97 1 15 4 66 2 28 0 84
2 38 0 44 3 53 1 80 4 4
2 72 1 44 0 46 4 84 3 26
-1
0 3 5
0 2 4 5
0 1 3 5
0 1 5
0 2 3 4 5
-2
207 476
94 171 249
135 280 366
42 277
165 252 392 341

419 5
16 22 8 14 3
11 21 1 18 9
15 20 0 7 13
10 17 6 2 24
5 12 23 19 4
